instances/shortest_path/discrete/shortest_path_2_6.kp
21586
60

[25.223337878609396 1.8494928894664309]

[4 60]
